letting initialStacks = [42, 31, 10, 17, 6, 43, 12, 50, 34, 21, 26, 44, 40, 7, 33, 5, 46, 48, 30, 38, 1, 9, 23, 13, 41, 3, 29, 32, 20, 15, 49, 37, 36, 11, 39, 14, 47, 27, 25, 18, 19, 8, 45, 24, 4, 22, 51, 28, 2, 35, 16]
